(set-info :smt-lib-version 2.6)
(set-logic QF_LRA)
(set-info :source |
Fully parameterized specification and verification of a synchronizer   
circuit modeling metastability at various levels of refinement.     
A paper describing this specification, to be published in Designing     
Correct Circuits (DCC), 2006, is available from the authors.            

Geoffrey Brown, Indiana University <geobrown@cs.indiana.edu>
Lee Pike, Galois Connections, Inc. <leepike@galois.com>

Translated into CVC format by Leonardo de Moura.

This benchmark was automatically translated into SMT-LIB format from
CVC format using CVC Lite

|)
(set-info :category "industrial")
(set-info :status sat)
(declare-fun x_0 () Bool)
(declare-fun x_1 () Bool)
(declare-fun x_2 () Real)
(declare-fun x_3 () Real)
(declare-fun x_4 () Bool)
(declare-fun x_5 () Bool)
(declare-fun x_6 () Real)
(declare-fun x_7 () Real)
(declare-fun x_8 () Bool)
(declare-fun x_9 () Bool)
(declare-fun x_10 () Real)
(declare-fun x_11 () Real)
(declare-fun x_12 () Bool)
(declare-fun x_13 () Bool)
(declare-fun x_14 () Real)
(declare-fun x_15 () Real)
(declare-fun x_16 () Bool)
(declare-fun x_17 () Bool)
(declare-fun x_18 () Real)
(declare-fun x_19 () Real)
(declare-fun x_20 () Bool)
(declare-fun x_21 () Bool)
(declare-fun x_22 () Real)
(declare-fun x_23 () Real)
(declare-fun x_24 () Bool)
(declare-fun x_25 () Bool)
(declare-fun x_26 () Real)
(declare-fun x_27 () Real)
(declare-fun x_28 () Real)
(declare-fun x_29 () Real)
(declare-fun x_30 () Real)
(declare-fun x_31 () Real)
(declare-fun x_32 () Real)
(declare-fun x_33 () Real)
(declare-fun x_34 () Real)
(declare-fun x_35 () Real)
(declare-fun x_36 () Real)
(declare-fun x_37 () Real)
(declare-fun x_38 () Real)
(declare-fun x_39 () Real)
(declare-fun x_40 () Real)
(declare-fun x_41 () Real)
(declare-fun x_42 () Real)
(declare-fun x_43 () Real)
(declare-fun x_44 () Real)
(declare-fun x_45 () Real)
(declare-fun x_46 () Real)
(declare-fun x_47 () Real)
(declare-fun x_48 () Real)
(declare-fun x_49 () Real)
(declare-fun x_50 () Real)
(declare-fun x_51 () Real)
(declare-fun x_52 () Real)
(declare-fun x_53 () Real)
(declare-fun x_54 () Real)
(declare-fun x_55 () Real)
(declare-fun x_56 () Real)
(declare-fun x_57 () Real)
(declare-fun x_58 () Real)
(declare-fun x_59 () Real)
(declare-fun x_60 () Real)
(declare-fun x_61 () Real)
(declare-fun x_62 () Real)
(declare-fun x_63 () Real)
(declare-fun x_64 () Real)
(declare-fun x_65 () Real)
(declare-fun x_66 () Real)
(declare-fun x_67 () Real)
(declare-fun x_68 () Real)
(declare-fun x_69 () Real)
(declare-fun x_70 () Real)
(declare-fun x_71 () Real)
(declare-fun x_72 () Bool)
(declare-fun x_73 () Bool)
(declare-fun x_74 () Real)
(declare-fun x_75 () Bool)
(declare-fun x_76 () Bool)
(declare-fun x_77 () Bool)
(declare-fun x_78 () Bool)
(declare-fun x_79 () Bool)
(declare-fun x_80 () Real)
(declare-fun x_81 () Bool)
(declare-fun x_82 () Real)
(declare-fun x_83 () Real)
(declare-fun x_84 () Real)
(declare-fun x_85 () Bool)
(declare-fun x_86 () Real)
(declare-fun x_87 () Bool)
(declare-fun x_88 () Bool)
(declare-fun x_89 () Real)
(declare-fun x_90 () Bool)
(declare-fun x_91 () Real)
(declare-fun x_92 () Real)
(declare-fun x_93 () Real)
(declare-fun x_94 () Bool)
(declare-fun x_95 () Real)
(declare-fun x_96 () Bool)
(declare-fun x_97 () Bool)
(declare-fun x_98 () Real)
(declare-fun x_99 () Bool)
(declare-fun x_100 () Real)
(declare-fun x_101 () Real)
(declare-fun x_102 () Real)
(declare-fun x_103 () Bool)
(declare-fun x_104 () Real)
(declare-fun x_105 () Bool)
(declare-fun x_106 () Bool)
(declare-fun x_107 () Real)
(declare-fun x_108 () Bool)
(declare-fun x_109 () Real)
(declare-fun x_110 () Real)
(declare-fun x_111 () Real)
(declare-fun x_112 () Bool)
(declare-fun x_113 () Real)
(declare-fun x_114 () Bool)
(declare-fun x_115 () Bool)
(declare-fun x_116 () Real)
(declare-fun x_117 () Bool)
(declare-fun x_118 () Real)
(declare-fun x_119 () Real)
(declare-fun x_120 () Real)
(declare-fun x_121 () Bool)
(declare-fun x_122 () Real)
(declare-fun x_123 () Bool)
(declare-fun x_124 () Bool)
(declare-fun x_125 () Real)
(declare-fun x_126 () Bool)
(declare-fun x_127 () Real)
(declare-fun x_128 () Real)
(declare-fun x_129 () Real)
(declare-fun x_130 () Bool)
(declare-fun x_131 () Real)
(declare-fun x_132 () Real)
(declare-fun x_133 () Bool)
(declare-fun x_134 () Bool)
(declare-fun x_135 () Bool)
(declare-fun x_136 () Bool)
(declare-fun x_137 () Real)
(declare-fun x_138 () Bool)
(declare-fun x_139 () Real)
(declare-fun x_140 () Real)
(declare-fun x_141 () Real)
(declare-fun x_142 () Real)
(assert (let ((?v_14 (ite (<= x_28 x_29) x_28 x_29)) (?v_12 (ite (<= x_37 x_38) x_37 x_38)) (?v_10 (ite (<= x_42 x_43) x_42 x_43)) (?v_8 (ite (<= x_47 x_48) x_47 x_48)) (?v_6 (ite (<= x_52 x_53) x_52 x_53)) (?v_4 (ite (<= x_57 x_58) x_57 x_58)) (?v_2 (ite (<= x_62 x_63) x_62 x_63)) (?v_0 (ite (<= x_67 x_68) x_67 x_68)) (?v_105 (= x_39 x_33)) (?v_107 (= x_29 x_38)) (?v_109 (= x_41 x_35)) (?v_103 (= x_28 x_37))) (let ((?v_110 (not ?v_103)) (?v_113 (= x_40 x_34)) (?v_100 (= x_72 x_73)) (?v_101 (= x_7 x_3)) (?v_104 (ite (<= x_29 x_28) x_29 x_28)) (?v_91 (= x_44 x_39)) (?v_93 (= x_38 x_43)) (?v_95 (= x_46 x_41)) (?v_89 (= x_37 x_42))) (let ((?v_96 (not ?v_89)) (?v_99 (= x_45 x_40)) (?v_86 (= x_85 x_72)) (?v_87 (= x_11 x_7)) (?v_90 (ite (<= x_38 x_37) x_38 x_37)) (?v_77 (= x_49 x_44)) (?v_79 (= x_43 x_48)) (?v_81 (= x_51 x_46)) (?v_75 (= x_42 x_47))) (let ((?v_82 (not ?v_75)) (?v_85 (= x_50 x_45)) (?v_72 (= x_94 x_85)) (?v_73 (= x_15 x_11)) (?v_76 (ite (<= x_43 x_42) x_43 x_42)) (?v_63 (= x_54 x_49)) (?v_65 (= x_48 x_53)) (?v_67 (= x_56 x_51)) (?v_61 (= x_47 x_52))) (let ((?v_68 (not ?v_61)) (?v_71 (= x_55 x_50)) (?v_58 (= x_103 x_94)) (?v_59 (= x_19 x_15)) (?v_62 (ite (<= x_48 x_47) x_48 x_47)) (?v_49 (= x_59 x_54)) (?v_51 (= x_53 x_58)) (?v_53 (= x_61 x_56)) (?v_47 (= x_52 x_57))) (let ((?v_54 (not ?v_47)) (?v_57 (= x_60 x_55)) (?v_44 (= x_112 x_103)) (?v_45 (= x_23 x_19)) (?v_48 (ite (<= x_53 x_52) x_53 x_52)) (?v_35 (= x_64 x_59)) (?v_37 (= x_58 x_63)) (?v_39 (= x_66 x_61)) (?v_33 (= x_57 x_62))) (let ((?v_40 (not ?v_33)) (?v_43 (= x_65 x_60)) (?v_30 (= x_121 x_112)) (?v_31 (= x_27 x_23)) (?v_34 (ite (<= x_58 x_57) x_58 x_57)) (?v_21 (= x_69 x_64)) (?v_23 (= x_63 x_68)) (?v_25 (= x_71 x_66)) (?v_19 (= x_62 x_67))) (let ((?v_26 (not ?v_19)) (?v_29 (= x_70 x_65)) (?v_16 (= x_130 x_121)) (?v_17 (= x_131 x_27)) (?v_20 (ite (<= x_63 x_62) x_63 x_62)) (?v_18 (= x_134 x_25)) (?v_28 (= x_27 x_131)) (?v_32 (= x_25 x_21)) (?v_42 (= x_23 x_27)) (?v_46 (= x_21 x_17)) (?v_56 (= x_19 x_23)) (?v_60 (= x_17 x_13)) (?v_70 (= x_15 x_19)) (?v_74 (= x_13 x_9)) (?v_84 (= x_11 x_15)) (?v_88 (= x_9 x_5)) (?v_98 (= x_7 x_11)) (?v_102 (= x_5 x_1)) (?v_112 (= x_3 x_7)) (?v_22 (<= x_66 ?v_2)) (?v_36 (<= x_61 ?v_4)) (?v_50 (<= x_56 ?v_6)) (?v_64 (<= x_51 ?v_8)) (?v_78 (<= x_46 ?v_10)) (?v_92 (<= x_41 ?v_12)) (?v_106 (<= x_35 ?v_14)) (?v_1 (+ ?v_0 x_32)) (?v_24 (+ ?v_2 x_36)) (?v_3 (+ ?v_2 x_32)) (?v_38 (+ ?v_4 x_36)) (?v_5 (+ ?v_4 x_32)) (?v_52 (+ ?v_6 x_36)) (?v_7 (+ ?v_6 x_32)) (?v_66 (+ ?v_8 x_36)) (?v_9 (+ ?v_8 x_32)) (?v_80 (+ ?v_10 x_36)) (?v_11 (+ ?v_10 x_32)) (?v_94 (+ ?v_12 x_36)) (?v_13 (+ ?v_12 x_32)) (?v_108 (+ ?v_14 x_36)) (?v_15 (+ ?v_14 x_32))) (let ((?v_27 (+ ?v_20 x_32)) (?v_41 (+ ?v_34 x_32)) (?v_55 (+ ?v_48 x_32)) (?v_69 (+ ?v_62 x_32)) (?v_83 (+ ?v_76 x_32)) (?v_97 (+ ?v_90 x_32)) (?v_111 (+ ?v_104 x_32))) (and (and (and (and (and (and (and (and (and (and (and (and (and (and (and (and (and (and (and (and (and (and (and (and (and (and (and (and (and (and (and (and (and (and (and (and (and (and (and (and (and (and (and (and (and (and (and (and (and (and (and (and (and (and (and (and (and (and (and (and (and (and (and (and (and (and (and (and (and (and (and (and (and (and (and (and (and (and (and (and (and (and (and (and (and (and (and (and (and (and (and (and (and (and (and (and (and (and (and (and (and (and (and (and (and (and (and (and (> x_30 0) (> x_31 0)) (>= x_32 0)) (< x_32 x_30)) (< x_32 x_31)) (>= x_36 0)) (< x_36 x_30)) (< x_36 x_31)) (or (= x_24 x_25) (= x_26 x_27))) (or (= x_20 x_21) (= x_22 x_23))) (or (= x_16 x_17) (= x_18 x_19))) (or (= x_12 x_13) (= x_14 x_15))) (or (= x_8 x_9) (= x_10 x_11))) (or (= x_4 x_5) (= x_6 x_7))) (or (= x_0 x_1) (= x_2 x_3))) (or (<= x_69 ?v_0) (<= (- (+ x_69 x_31) x_32) x_68))) (or (<= x_70 ?v_0) (<= (- (+ x_70 x_31) x_32) x_68))) (or (<= x_71 ?v_0) (<= (- (+ x_71 x_30) x_36) x_67))) (<= x_71 (+ ?v_0 x_36))) (<= x_70 ?v_1)) (<= x_69 ?v_1)) (<= ?v_0 x_67)) (<= ?v_0 x_68)) (or (<= x_64 ?v_2) (<= (- (+ x_64 x_31) x_32) x_63))) (or (<= x_65 ?v_2) (<= (- (+ x_65 x_31) x_32) x_63))) (or ?v_22 (<= (- (+ x_66 x_30) x_36) x_62))) (<= x_66 ?v_24)) (<= x_65 ?v_3)) (<= x_64 ?v_3)) (<= ?v_2 x_62)) (<= ?v_2 x_63)) (or (<= x_59 ?v_4) (<= (- (+ x_59 x_31) x_32) x_58))) (or (<= x_60 ?v_4) (<= (- (+ x_60 x_31) x_32) x_58))) (or ?v_36 (<= (- (+ x_61 x_30) x_36) x_57))) (<= x_61 ?v_38)) (<= x_60 ?v_5)) (<= x_59 ?v_5)) (<= ?v_4 x_57)) (<= ?v_4 x_58)) (or (<= x_54 ?v_6) (<= (- (+ x_54 x_31) x_32) x_53))) (or (<= x_55 ?v_6) (<= (- (+ x_55 x_31) x_32) x_53))) (or ?v_50 (<= (- (+ x_56 x_30) x_36) x_52))) (<= x_56 ?v_52)) (<= x_55 ?v_7)) (<= x_54 ?v_7)) (<= ?v_6 x_52)) (<= ?v_6 x_53)) (or (<= x_49 ?v_8) (<= (- (+ x_49 x_31) x_32) x_48))) (or (<= x_50 ?v_8) (<= (- (+ x_50 x_31) x_32) x_48))) (or ?v_64 (<= (- (+ x_51 x_30) x_36) x_47))) (<= x_51 ?v_66)) (<= x_50 ?v_9)) (<= x_49 ?v_9)) (<= ?v_8 x_47)) (<= ?v_8 x_48)) (or (<= x_44 ?v_10) (<= (- (+ x_44 x_31) x_32) x_43))) (or (<= x_45 ?v_10) (<= (- (+ x_45 x_31) x_32) x_43))) (or ?v_78 (<= (- (+ x_46 x_30) x_36) x_42))) (<= x_46 ?v_80)) (<= x_45 ?v_11)) (<= x_44 ?v_11)) (<= ?v_10 x_42)) (<= ?v_10 x_43)) (or (<= x_39 ?v_12) (<= (- (+ x_39 x_31) x_32) x_38))) (or (<= x_40 ?v_12) (<= (- (+ x_40 x_31) x_32) x_38))) (or ?v_92 (<= (- (+ x_41 x_30) x_36) x_37))) (<= x_41 ?v_94)) (<= x_40 ?v_13)) (<= x_39 ?v_13)) (<= ?v_12 x_37)) (<= ?v_12 x_38)) (or (<= x_33 ?v_14) (<= (- (+ x_33 x_31) x_32) x_29))) (or (<= x_34 ?v_14) (<= (- (+ x_34 x_31) x_32) x_29))) (or ?v_106 (<= (- (+ x_35 x_30) x_36) x_28))) (<= x_35 ?v_108)) (<= x_34 ?v_15)) (<= x_33 ?v_15)) (<= ?v_14 x_28)) (<= ?v_14 x_29)) (or (and (and (and (and (and (and (and (and (and (= x_132 0) (= x_133 x_126)) (= ?v_2 x_62)) (<= (+ ?v_2 x_30) x_67)) (or ?v_18 (= x_134 x_24))) (= x_135 x_123)) (= x_136 x_124)) (= x_68 x_63)) ?v_16) ?v_17) (and (and (and (and (and (and (and (and (and (= x_132 1) (= x_136 x_123)) (= ?v_2 x_63)) (<= (+ ?v_2 x_31) x_68)) (or (and (and (= x_137 0) ?v_16) ?v_17) (and (and (= x_137 1) (= x_121 x_124)) (= x_130 (not x_121))))) (= x_138 x_126)) (= x_133 x_24)) (= x_139 x_26)) (= x_67 x_62)) ?v_18))) (or (or (and (and (and (= x_140 0) ?v_26) (or (not (<= x_64 ?v_20)) (= x_138 x_121))) ?v_21) (and (and (and (= x_140 1) ?v_19) (xor x_121 x_130)) (= x_69 ?v_27))) (and (and (and (= x_140 2) ?v_19) (= x_121 x_130)) ?v_21))) (or (or (and (and (and (= x_141 0) (not ?v_23)) (or (not ?v_22) (= x_135 x_25))) ?v_25) (and (and (and (= x_141 1) ?v_23) (xor x_25 x_134)) (= x_71 ?v_24))) (and (and (and (= x_141 2) ?v_23) (= x_25 x_134)) ?v_25))) (or (or (and (and (and (= x_142 0) ?v_26) (or (not (<= x_65 ?v_20)) (= x_139 x_27))) ?v_29) (and (and (and (= x_142 1) ?v_19) (not ?v_28)) (= x_70 ?v_27))) (and (and (and (= x_142 2) ?v_19) ?v_28) ?v_29))) (or (and (and (and (and (and (and (and (and (and (= x_122 0) (= x_24 x_117)) (= ?v_4 x_57)) (<= (+ ?v_4 x_30) x_62)) (or ?v_32 (= x_25 x_20))) (= x_123 x_114)) (= x_124 x_115)) (= x_63 x_58)) ?v_30) ?v_31) (and (and (and (and (and (and (and (and (and (= x_122 1) (= x_124 x_114)) (= ?v_4 x_58)) (<= (+ ?v_4 x_31) x_63)) (or (and (and (= x_125 0) ?v_30) ?v_31) (and (and (= x_125 1) (= x_112 x_115)) (= x_121 (not x_112))))) (= x_126 x_117)) (= x_24 x_20)) (= x_26 x_22)) (= x_62 x_57)) ?v_32))) (or (or (and (and (and (= x_127 0) ?v_40) (or (not (<= x_59 ?v_34)) (= x_126 x_112))) ?v_35) (and (and (and (= x_127 1) ?v_33) (xor x_112 x_121)) (= x_64 ?v_41))) (and (and (and (= x_127 2) ?v_33) (= x_112 x_121)) ?v_35))) (or (or (and (and (and (= x_128 0) (not ?v_37)) (or (not ?v_36) (= x_123 x_21))) ?v_39) (and (and (and (= x_128 1) ?v_37) (xor x_21 x_25)) (= x_66 ?v_38))) (and (and (and (= x_128 2) ?v_37) (= x_21 x_25)) ?v_39))) (or (or (and (and (and (= x_129 0) ?v_40) (or (not (<= x_60 ?v_34)) (= x_26 x_23))) ?v_43) (and (and (and (= x_129 1) ?v_33) (not ?v_42)) (= x_65 ?v_41))) (and (and (and (= x_129 2) ?v_33) ?v_42) ?v_43))) (or (and (and (and (and (and (and (and (and (and (= x_113 0) (= x_20 x_108)) (= ?v_6 x_52)) (<= (+ ?v_6 x_30) x_57)) (or ?v_46 (= x_21 x_16))) (= x_114 x_105)) (= x_115 x_106)) (= x_58 x_53)) ?v_44) ?v_45) (and (and (and (and (and (and (and (and (and (= x_113 1) (= x_115 x_105)) (= ?v_6 x_53)) (<= (+ ?v_6 x_31) x_58)) (or (and (and (= x_116 0) ?v_44) ?v_45) (and (and (= x_116 1) (= x_103 x_106)) (= x_112 (not x_103))))) (= x_117 x_108)) (= x_20 x_16)) (= x_22 x_18)) (= x_57 x_52)) ?v_46))) (or (or (and (and (and (= x_118 0) ?v_54) (or (not (<= x_54 ?v_48)) (= x_117 x_103))) ?v_49) (and (and (and (= x_118 1) ?v_47) (xor x_103 x_112)) (= x_59 ?v_55))) (and (and (and (= x_118 2) ?v_47) (= x_103 x_112)) ?v_49))) (or (or (and (and (and (= x_119 0) (not ?v_51)) (or (not ?v_50) (= x_114 x_17))) ?v_53) (and (and (and (= x_119 1) ?v_51) (xor x_17 x_21)) (= x_61 ?v_52))) (and (and (and (= x_119 2) ?v_51) (= x_17 x_21)) ?v_53))) (or (or (and (and (and (= x_120 0) ?v_54) (or (not (<= x_55 ?v_48)) (= x_22 x_19))) ?v_57) (and (and (and (= x_120 1) ?v_47) (not ?v_56)) (= x_60 ?v_55))) (and (and (and (= x_120 2) ?v_47) ?v_56) ?v_57))) (or (and (and (and (and (and (and (and (and (and (= x_104 0) (= x_16 x_99)) (= ?v_8 x_47)) (<= (+ ?v_8 x_30) x_52)) (or ?v_60 (= x_17 x_12))) (= x_105 x_96)) (= x_106 x_97)) (= x_53 x_48)) ?v_58) ?v_59) (and (and (and (and (and (and (and (and (and (= x_104 1) (= x_106 x_96)) (= ?v_8 x_48)) (<= (+ ?v_8 x_31) x_53)) (or (and (and (= x_107 0) ?v_58) ?v_59) (and (and (= x_107 1) (= x_94 x_97)) (= x_103 (not x_94))))) (= x_108 x_99)) (= x_16 x_12)) (= x_18 x_14)) (= x_52 x_47)) ?v_60))) (or (or (and (and (and (= x_109 0) ?v_68) (or (not (<= x_49 ?v_62)) (= x_108 x_94))) ?v_63) (and (and (and (= x_109 1) ?v_61) (xor x_94 x_103)) (= x_54 ?v_69))) (and (and (and (= x_109 2) ?v_61) (= x_94 x_103)) ?v_63))) (or (or (and (and (and (= x_110 0) (not ?v_65)) (or (not ?v_64) (= x_105 x_13))) ?v_67) (and (and (and (= x_110 1) ?v_65) (xor x_13 x_17)) (= x_56 ?v_66))) (and (and (and (= x_110 2) ?v_65) (= x_13 x_17)) ?v_67))) (or (or (and (and (and (= x_111 0) ?v_68) (or (not (<= x_50 ?v_62)) (= x_18 x_15))) ?v_71) (and (and (and (= x_111 1) ?v_61) (not ?v_70)) (= x_55 ?v_69))) (and (and (and (= x_111 2) ?v_61) ?v_70) ?v_71))) (or (and (and (and (and (and (and (and (and (and (= x_95 0) (= x_12 x_90)) (= ?v_10 x_42)) (<= (+ ?v_10 x_30) x_47)) (or ?v_74 (= x_13 x_8))) (= x_96 x_87)) (= x_97 x_88)) (= x_48 x_43)) ?v_72) ?v_73) (and (and (and (and (and (and (and (and (and (= x_95 1) (= x_97 x_87)) (= ?v_10 x_43)) (<= (+ ?v_10 x_31) x_48)) (or (and (and (= x_98 0) ?v_72) ?v_73) (and (and (= x_98 1) (= x_85 x_88)) (= x_94 (not x_85))))) (= x_99 x_90)) (= x_12 x_8)) (= x_14 x_10)) (= x_47 x_42)) ?v_74))) (or (or (and (and (and (= x_100 0) ?v_82) (or (not (<= x_44 ?v_76)) (= x_99 x_85))) ?v_77) (and (and (and (= x_100 1) ?v_75) (xor x_85 x_94)) (= x_49 ?v_83))) (and (and (and (= x_100 2) ?v_75) (= x_85 x_94)) ?v_77))) (or (or (and (and (and (= x_101 0) (not ?v_79)) (or (not ?v_78) (= x_96 x_9))) ?v_81) (and (and (and (= x_101 1) ?v_79) (xor x_9 x_13)) (= x_51 ?v_80))) (and (and (and (= x_101 2) ?v_79) (= x_9 x_13)) ?v_81))) (or (or (and (and (and (= x_102 0) ?v_82) (or (not (<= x_45 ?v_76)) (= x_14 x_11))) ?v_85) (and (and (and (= x_102 1) ?v_75) (not ?v_84)) (= x_50 ?v_83))) (and (and (and (= x_102 2) ?v_75) ?v_84) ?v_85))) (or (and (and (and (and (and (and (and (and (and (= x_86 0) (= x_8 x_81)) (= ?v_12 x_37)) (<= (+ ?v_12 x_30) x_42)) (or ?v_88 (= x_9 x_4))) (= x_87 x_76)) (= x_88 x_78)) (= x_43 x_38)) ?v_86) ?v_87) (and (and (and (and (and (and (and (and (and (= x_86 1) (= x_88 x_76)) (= ?v_12 x_38)) (<= (+ ?v_12 x_31) x_43)) (or (and (and (= x_89 0) ?v_86) ?v_87) (and (and (= x_89 1) (= x_72 x_78)) (= x_85 (not x_72))))) (= x_90 x_81)) (= x_8 x_4)) (= x_10 x_6)) (= x_42 x_37)) ?v_88))) (or (or (and (and (and (= x_91 0) ?v_96) (or (not (<= x_39 ?v_90)) (= x_90 x_72))) ?v_91) (and (and (and (= x_91 1) ?v_89) (xor x_72 x_85)) (= x_44 ?v_97))) (and (and (and (= x_91 2) ?v_89) (= x_72 x_85)) ?v_91))) (or (or (and (and (and (= x_92 0) (not ?v_93)) (or (not ?v_92) (= x_87 x_5))) ?v_95) (and (and (and (= x_92 1) ?v_93) (xor x_5 x_9)) (= x_46 ?v_94))) (and (and (and (= x_92 2) ?v_93) (= x_5 x_9)) ?v_95))) (or (or (and (and (and (= x_93 0) ?v_96) (or (not (<= x_40 ?v_90)) (= x_10 x_7))) ?v_99) (and (and (and (= x_93 1) ?v_89) (not ?v_98)) (= x_45 ?v_97))) (and (and (and (= x_93 2) ?v_89) ?v_98) ?v_99))) (or (and (and (and (and (and (and (and (and (and (= x_74 0) (= x_4 x_75)) (= ?v_14 x_28)) (<= (+ ?v_14 x_30) x_37)) (or ?v_102 (= x_5 x_0))) (= x_76 x_77)) (= x_78 x_79)) (= x_38 x_29)) ?v_100) ?v_101) (and (and (and (and (and (and (and (and (and (= x_74 1) (= x_78 x_77)) (= ?v_14 x_29)) (<= (+ ?v_14 x_31) x_38)) (or (and (and (= x_80 0) ?v_100) ?v_101) (and (and (= x_80 1) (= x_73 x_79)) (= x_72 (not x_73))))) (= x_81 x_75)) (= x_4 x_0)) (= x_6 x_2)) (= x_37 x_28)) ?v_102))) (or (or (and (and (and (= x_82 0) ?v_110) (or (not (<= x_33 ?v_104)) (= x_81 x_73))) ?v_105) (and (and (and (= x_82 1) ?v_103) (xor x_73 x_72)) (= x_39 ?v_111))) (and (and (and (= x_82 2) ?v_103) (= x_73 x_72)) ?v_105))) (or (or (and (and (and (= x_83 0) (not ?v_107)) (or (not ?v_106) (= x_76 x_1))) ?v_109) (and (and (and (= x_83 1) ?v_107) (xor x_1 x_5)) (= x_41 ?v_108))) (and (and (and (= x_83 2) ?v_107) (= x_1 x_5)) ?v_109))) (or (or (and (and (and (= x_84 0) ?v_110) (or (not (<= x_34 ?v_104)) (= x_6 x_3))) ?v_113) (and (and (and (= x_84 1) ?v_103) (not ?v_112)) (= x_40 ?v_111))) (and (and (and (= x_84 2) ?v_103) ?v_112) ?v_113))) (xor x_133 x_134)) (not (= x_139 x_131)))))))))))))
(check-sat)
(exit)
